
Gurobi 6.5.2 (linux64) logging started Tue Mar 21 10:55:07 2017


Gurobi 6.5.2 (linux64) logging started Tue Mar 21 10:55:07 2017

Optimize a model with 201 rows, 1585 columns and 3481 nonzeros
Coefficient statistics:
  Matrix range    [1e+00, 2e+00]
  Objective range [1e+00, 1e+02]
  Bounds range    [1e+00, 1e+00]
  RHS range       [1e+00, 1e+00]
Found heuristic solution: objective 2662
Presolve removed 54 rows and 4 columns
Presolve time: 0.01s
Presolved: 147 rows, 1581 columns, 3235 nonzeros
Variable types: 0 continuous, 1581 integer (1581 binary)

Root relaxation: objective 8.757500e+02, 121 iterations, 0.00 seconds

    Nodes    |    Current Node    |     Objective Bounds      |     Work
 Expl Unexpl |  Obj  Depth IntInf | Incumbent    BestBd   Gap | It/Node Time

     0     0  875.75000    0   48 2662.00000  875.75000  67.1%     -    0s
     0     0  973.01667    0   34 2662.00000  973.01667  63.4%     -    0s
     0     0  991.20556    0   97 2662.00000  991.20556  62.8%     -    0s
     0     0  991.35139    0   93 2662.00000  991.35139  62.8%     -    0s
     0     0  999.01389    0   93 2662.00000  999.01389  62.5%     -    0s
     0     0  999.18750    0   94 2662.00000  999.18750  62.5%     -    0s
     0     0 1001.59077    0  104 2662.00000 1001.59077  62.4%     -    0s
     0     0 1001.59077    0  104 2662.00000 1001.59077  62.4%     -    0s
     0     2 1003.39583    0  100 2662.00000 1003.39583  62.3%     -    0s
H  648   588                    1170.0000000 1008.20833  13.8%   5.8    0s
H 1108   918                    1124.0000000 1008.20833  10.3%   6.7    0s
H 1157   903                    1091.0000000 1052.80362  3.50%   7.4    4s
H 1166   865                    1088.0000000 1052.80362  3.23%   7.8    4s
H 1168   822                    1076.0000000 1052.80362  2.16%   7.7    4s
  1178   830 1076.00000   60   50 1076.00000 1052.80362  2.16%   8.2    5s
H 1184   792                    1064.0000000 1053.25893  1.01%   8.1    5s
H 1203   767                    1063.0000000 1053.50000  0.89%   9.1    5s
H 1253   719                    1058.0000000 1054.04765  0.37%   9.5    6s
* 1306   656              77    1056.0000000 1055.66667  0.03%   9.7    6s

Cutting planes:
  Gomory: 28
  Cover: 85
  Clique: 2
  MIR: 1
  Flow cover: 9
  Zero half: 26
  Lazy constraints: 5

Explored 1321 nodes (13009 simplex iterations) in 6.21 seconds
Thread count was 4 (of 4 available processors)

Optimal solution found (tolerance 1.00e-04)
Best objective 1.056000000000e+03, best bound 1.056000000000e+03, gap 0.0%
